memory 500 MB
molecule nme2ala2_gas_c001_o002 {
    units Angstrom
    no_com
    no_reorient
    0 1
        C                5.000348311730159     2.559454804197975    -0.031714090007149
    H                5.725319584663712     1.765850355186380    -0.175167982779788
    H                5.102943238872412     3.264357786644840    -0.851388290197367
    H                5.204529274675070     3.077329873348280     0.893974139235408
    C                3.578785877724325     2.038661092969474     0.000000000000000
    O                2.745316135114496     2.499351815363570     0.727404855399488
    N                3.322442515530285     1.001603591375111    -0.846737309421570
    H                4.039447213507296     0.771931912255429    -1.498238506281098
    C                1.970816682801048     0.562326788517625    -1.209533369215883
    C                2.131043757996762    -0.600221787412197    -2.201578767015335
    H                2.618097045378663    -0.257079460191511    -3.110162495235581
    H                2.719579262215178    -1.403873436839304    -1.772566219897686
    H                1.158106889320994    -0.991862053855432    -2.468100124457842
    C                1.167001629156036     1.695589737641919    -1.855453290744422
    H                0.192928167614882     1.338322331152532    -2.156700171769036
    H                1.029678341067902     2.515410727712983    -1.165179353399468
    H                1.696919734227593     2.057240158513612    -2.731995961209797
    C                1.200643174032868     0.000000000000000    -0.000000000000000
    O                0.000000000000000     0.000000000000000     0.000000000000000
    N                1.930845384853568    -0.599864240023830     0.963104630826850
    H                2.897898446088468    -0.382031211372742     1.004074593683516
    C                1.294206872459097    -1.078089425299847     2.171831968557910
    H                0.940938306435507    -0.261739287551553     2.792775208766368
    H                0.451966860822956    -1.703393945091797     1.915840872507506
    H                2.010748273573761    -1.664939099159753     2.732081055283913


}

set basis 6-31g*
E, wfn = prop('hf', properties=['GRID_ESP'], return_wfn=True)
esp = wfn.oeprop.Vvals()
