memory 500 MB
molecule nme2ala2_solvated_c002_o002 {
    units Angstrom
    no_com
    no_reorient
    0 1
        C                0.045212844564629     4.580588741951532    -0.028964620915965
    H               -0.874460821627007     4.055343723626697     0.197498622462293
    H                0.186451015404519     5.385931739247850     0.679697315819499
    H               -0.037296317294855     5.019998398859265    -1.017152158724269
    C                1.271912533980978     3.691413444908615    -0.000000000000054
    O                2.379157577821486     4.167247235196697    -0.000475117581277
    N                1.020159865267728     2.367629403683603     0.004692796948837
    H                0.077611127453910     2.046820763062236     0.002981441877488
    C                2.019110349483442     1.310614502512471    -0.001655336823689
    C                2.890483822850238     1.382700087731038     1.264910643092140
    H                3.386607235387051     2.341114542545863     1.304444025617213
    H                2.277511680133015     1.269987897960518     2.152672555285240
    H                3.648206367592608     0.606414861784831     1.272927601864595
    C                2.878805956246000     1.384435056279434    -1.276153380046883
    H                3.634888380933412     0.606743055577136    -1.293004016205365
    H                2.257439526231945     1.274573165478525    -2.158479732569914
    H                3.376230808863854     2.342119435173775    -1.318147846736063
    C                1.205428895019099    -0.000000000000000    -0.000000000000004
    O                0.000000000000000     0.000000000000000     0.000000000000000
    N                1.908895460887868    -1.145096298409542     0.000316334498372
    H                2.899990254802724    -1.116603463562599     0.001782434106018
    C                1.248096177665349    -2.434335826194271     0.001463141708998
    H                0.627236022679402    -2.549809556173772     0.880362228195851
    H                0.624013570443690    -2.549344341608880    -0.875163548036559
    H                2.004814404280077    -3.206937821361824    -0.000145052829418


}

set basis 6-31g*
E, wfn = prop('hf', properties=['GRID_ESP'], return_wfn=True)
esp = wfn.oeprop.Vvals()
