memory 500 MB
molecule nme2ala2_gas_c002_o003 {
    units Angstrom
    no_com
    no_reorient
    0 1
        C                0.798218423810079    -2.231817603054911    -0.028256069939404
    H                1.710360103653972    -2.770042751898911     0.198192218210975
    H                0.028874803471105    -2.508355289399994     0.680520768458059
    H                0.457430746481345    -2.521471134802632    -1.016369327001124
    C                0.962207708545949    -0.725648470441544     0.000481442215402
    O                0.000000000000000     0.000000000000000     0.000000000000000
    N                2.236647397199873    -0.287939893495260     0.004986772483012
    H                2.982568559659229    -0.947423016360385     0.003293893492114
    C                2.659309954201206     1.103654829529900    -0.001598041306455
    C                2.164802618741578     1.824822107767086     1.264915951960238
    H                1.086506478219835     1.780491577177969     1.304562306050453
    H                2.566688156919165     1.348503808930400     2.152704772912607
    H                2.463273385825482     2.867741180479994     1.272757344002680
    C                2.168834259379899     1.813464682456918    -1.276146917616162
    H                2.469337434693743     2.855653423268738    -1.293173219852833
    H                2.572231168905148     1.328195484956227    -2.158445283872085
    H                1.090518809074090     1.770614927442402    -1.318028619343967
    C                4.200919468692795     1.046835410055238    -0.000087387543397
    O                4.798576927079175     0.000000000000001     0.000000000000025
    N                4.846577914942260     2.225493971787214     0.000000000000003
    H                4.330444336677709     3.072067686651119     0.001398678005181
    C                6.293824907158449     2.290844737971392     0.000994362660866
    H                6.702018697665744     1.809044165329568     0.879920500732361
    H                6.703038578447106     1.805769239104133    -0.875604943782989
    H                6.589594024259122     3.331064115595422    -0.000788753280133


}

set basis 6-31g*
E, wfn = prop('hf', properties=['GRID_ESP'], return_wfn=True)
esp = wfn.oeprop.Vvals()
