memory 500 MB
molecule nme2ala2_gas_c002_o004 {
    units Angstrom
    no_com
    no_reorient
    0 1
        C                4.543572651507875     3.951302140450825     0.028256069939445
    H                5.062003524759239     3.027766442918551    -0.198192218210915
    H                4.836635911499604     4.714503702142354    -0.680520768458020
    H                4.840507466514140     4.285764582453264     1.016369327001167
    C                3.034217526460234     3.819829527188979    -0.000481442215386
    O                2.329486519376167     4.797461147326991    -0.000000000000006
    N                2.569129124851986     2.555124780207242    -0.004986772482991
    H                3.212374101901529     1.795156182534163    -0.003293893492073
    C                1.168743822081987     2.162568396959999     0.001598041306457
    C                0.458407626840532     2.672511764161948    -1.264915951960255
    H                0.525979876023733     3.749601246863697    -1.304562306050479
    H                0.925949041956632     2.260448501113395    -2.152704772912610
    H               -0.590705069470624     2.396599565318293    -1.272757344002712
    C                0.469675474302996     2.668236153156015     1.276146917616146
    H               -0.578750886114609     2.390276270025149     1.293173219852801
    H                0.946133116073740     2.254468855927579     2.158445283872082
    H                0.535767708615939     3.745376872113639     1.318028619343941
    C                1.192307264705037     0.620092106778468     0.000087387543414
    O                2.226011570791368     0.000000000000001     0.000000000000017
    N                0.000000000000000     0.000000000000000     0.000000000000000
    H               -0.835247130730830     0.534268804925532    -0.001398678005198
    C               -0.096543532981913    -1.445501271310071    -0.000994362660850
    H                0.376342852087454    -1.863989537839435    -0.879920500732333
    H                0.379595024440315    -1.865079800916531     0.875604943783017
    H               -1.142898904445997    -1.718770663711228     0.000788753280134


}

set basis 6-31g*
E, wfn = prop('hf', properties=['GRID_ESP'], return_wfn=True)
esp = wfn.oeprop.Vvals()
