memory 500 MB
molecule methylammonium_solvated_c001_o002 {
    units Angstrom
    no_com
    no_reorient
    1 1
        C                1.566089677867175     1.401637467415249    -0.000000000000000
    H                1.213313391170230     1.902224741672164    -0.887177024734546
    H                1.213310673398767     1.902226214249930     0.887175089601728
    H                2.642159107756278     1.336858262941889     0.000001628279159
    N                1.011488728740888     0.000000000000000     0.000000000000000
    H                1.311846336188909    -0.519072850399178     0.814529724098511
    H                0.000000000000000     0.000000000000000     0.000000000000000
    H                1.311846238767575    -0.519072048982196    -0.814530434530888


}

set basis 6-31g*
E, wfn = prop('hf', properties=['GRID_ESP'], return_wfn=True)
esp = wfn.oeprop.Vvals()
