memory 500 MB
molecule nme2ala2_gas_c001_o003 {
    units Angstrom
    no_com
    no_reorient
    0 1
        C               -1.530133404282706     0.930873932266480    -1.567548897941957
    H               -1.504342982557704     1.862972015202294    -2.121171879181126
    H               -1.912671799445602     0.156365681089915    -2.225637853388635
    H               -2.198414288243336     1.025674081557296    -0.724224083613571
    C               -0.160602441435619     0.523907688764714    -1.065717207641396
    O                0.000000000000000     0.000000000000000     0.000000000000000
    N                0.873345290857530     0.809617021894686    -1.906839384241709
    H                0.630041221735708     1.128609191854505    -2.818072478500937
    C                2.214125783604806     0.229749940229766    -1.774403286059382
    C                3.056629107763165     0.785244870807114    -2.933264584577150
    H                2.651194947458969     0.456896143820011    -3.886313485636758
    H                3.077993635760005     1.869496756566935    -2.918325236979240
    H                4.072628849334538     0.420873718015060    -2.855804460376218
    C                2.172930263693027    -1.300364111902515    -1.842740786439377
    H                3.173723308061328    -1.703926443215756    -1.790209665810481
    H                1.598249797773746    -1.709386687929769    -1.024275671617144
    H                1.718003002269836    -1.605719014197882    -2.780680469257018
    C                2.911947335836859     0.675434416397956    -0.475650018158704
    O                3.783204726464049     0.000000000000001     0.000000000000001
    N                2.593188186940523     1.897216954449404     0.000000000000001
    H                1.739650054191671     2.297958451142171    -0.308545455717012
    C                3.138702633073409     2.356269231854675     1.259648639876972
    H                2.736348136731360     1.801466351720711     2.100541830580164
    H                4.212205269099858     2.240205680817570     1.254475295204635
    H                2.898716472182623     3.404937796341490     1.379665483845766


}

set basis 6-31g*
E, wfn = prop('hf', properties=['GRID_ESP'], return_wfn=True)
esp = wfn.oeprop.Vvals()
