memory 500MB
molecule nme2ala2_solvated_c001_o004 {
    units Angstrom
    no_com
    no_reorient
    0 1
        C               -1.372357128243405     4.006524141163861     1.567548897941957
    H               -2.148273473877044     3.489391849923107     2.121171879181125
    H               -0.919505238884869     4.742135330052929     2.225637853388634
    H               -1.807767360979723     4.522280224405992     0.724224083613571
    C               -0.299877930647871     3.062582960649074     1.065717207641395
    O                0.229285342172748     3.204915814339414     0.000000000000000
    N                0.007488808535980     2.034865380865987     1.906839384241709
    H               -0.392026428594112     2.071477535238498     2.818072478500937
    C                1.211162771889807     1.207153382599495     1.774403286059383
    C                1.188255681257180     0.198262043399001     2.933264584577151
    H                1.250980600430398     0.716195754765942     3.886313485636759
    H                0.281091525893670    -0.395970057765068     2.918325236979241
    H                2.036796693915924    -0.468821131097389     2.855804460376219
    C                2.485498498013775     2.055100633622559     1.842740786439377
    H                3.359159743847313     1.421724520685276     1.790209665810482
    H                2.526634182829562     2.759277430346158     1.024275671617145
    H                2.502445465175749     2.602743975448083     2.780680469257018
    C                1.204402049938114     0.379177619853049     0.475650018158704
    O                2.239547172218039    -0.000000000000000     0.000000000000000
    N                0.000000000000000     0.000000000000000     0.000000000000000
    H               -0.793025518280620     0.510129021507021     0.308545455717012
    C               -0.099015797914683    -0.706053026403792    -1.259648639876972
    H                0.157184621655206    -0.070398464913184    -2.100541830580164
    H                0.569728155101264    -1.553791301309250    -1.254475295204634
    H               -1.114908344891490    -1.059975967958744    -1.379665483845766


}

set basis aug-cc-pV(D+d)Z

set {
    pcm true
    pcm_scf_type total
}

pcm = {
    Units = Angstrom
    Medium {
        SolverType = CPCM
        Solvent = water
    }

    Cavity {
        RadiiSet = bondi # Bondi | UFF | Allinger
        Type = GePol
        Scaling = True # radii for spheres scaled by 1.2
        Area = 0.3
        Mode = Implicit
    }
}

E, wfn = prop('pw6b95', properties=['GRID_ESP'], return_wfn=True)
esp = wfn.oeprop.Vvals()
