memory 500 MB
molecule nme2ala2_gas_c001_o001 {
    units Angstrom
    no_com
    no_reorient
    0 1
        C               -1.418226222472137    -0.529811499803617     0.031714090007150
    H               -1.452128617916569    -1.604168049396452     0.175167982779789
    H               -1.954895611012030    -0.061410068185364     0.851388290197367
    H               -1.910296561287842    -0.269520826643125    -0.893974139235408
    C                0.000000000000000     0.000000000000000     0.000000000000000
    O                0.332949129188107     0.892217815849341    -0.727404855399488
    N                0.869576529806922    -0.620513367916468     0.846737309421570
    H                0.474693645977293    -1.261537802060092     1.498238506281098
    C                2.181651420824369    -0.074330265293132     1.209533369215883
    C                2.816635078439484    -1.061238397585070     2.201578767015335
    H                2.223526050815746    -1.117711779201286     3.110162495235581
    H                2.892856093834139    -2.054425374022408     1.772566219897687
    H                3.810199325367660    -0.725353988964513     2.468100124457842
    C                2.054350689659348     1.309215207819001     1.855453290744422
    H                3.026406695320264     1.671935802873882     2.156700171769036
    H                1.625038212423306     2.021012185967890     1.165179353399468
    H                1.416652207759027     1.238895429795118     2.731995961209797
    C                3.132363607742307    -0.000000000000003     0.000000000000000
    O                4.043911934062320     0.781424135879420     0.000000000000000
    N                2.968396317542393    -0.930670243905599    -0.963104630826850
    H                2.092419500818157    -1.394682601690146    -1.004074593683515
    C                3.762989993030206    -0.879398281090697    -2.171831968557909
    H                3.499885735498246    -0.029691051034028    -2.792775208766367
    H                4.809404568300345    -0.805978145328745    -1.915840872507505
    H                3.600923843947478    -1.791296675947460    -2.732081055283911


}

set basis 6-31g*
E, wfn = prop('hf', properties=['GRID_ESP'], return_wfn=True)
esp = wfn.oeprop.Vvals()
