memory 500MB
molecule nme2ala2_gas_c002_o001 {
    units Angstrom
    no_com
    no_reorient
    0 1
        C               -0.866941414713151     1.242512543333342     0.028964620915907
    H               -0.325220606635015     2.152578775899192    -0.197498622462339
    H               -1.674697164247192     1.115799429208967    -0.679697315819569
    H               -1.304794044998580     1.332920963995728     1.017152158724206
    C                0.000000000000000     0.000000000000000     0.000000000000000
    O               -0.495695269843494    -1.098496965195660     0.000475117581210
    N                1.328102811648120     0.227873903066209    -0.004692796948872
    H                1.665832311926854     1.164492871320231    -0.002981441877513
    C                2.366957793055122    -0.789948723337078     0.001655336823661
    C                2.279192701908523    -1.659882830301294    -1.264910643092173
    H                1.311999744760872    -2.138667219467393    -1.304444025617262
    H                2.402924666982385    -1.049039735645081    -2.152672555285269
    H                3.041707422083729    -2.431461412397333    -1.272927601864623
    C                2.277668303012445    -1.648175614906690     1.276153380046849
    H                3.041619104182105    -2.418139675282090     1.293004016205337
    H                2.398701590801044    -1.028888267509833     2.158479732569885
    H                1.311181867818253    -2.128274379918385     1.318147846736013
    C                3.692012093087143    -0.000000000000004    -0.000000000000001
    O                3.713718766150518     1.205233438505370     0.000000000000003
    N                4.824255094756646    -0.723972739194557    -0.000316334498366
    H                4.777919812590721    -1.714393747548756    -0.001782434106019
    C                6.125184871378278    -0.086496489433692    -0.001463141708971
    H                6.251819971692666     0.532183610240548    -0.880362228195818
    H                6.251412860634851     0.535413917283135     0.875163548036592
    H                6.884035043184709    -0.857004590739040     0.000145052829450


}

set basis aug-cc-pV(D+d)Z
E, wfn = prop('pw6b95', properties=['GRID_ESP'], return_wfn=True)
esp = wfn.oeprop.Vvals()
